FEATURES = {storage, tasks, views, integrations, reporting, guests, permissions, goals, portfolio, customFields, twoFactorAuthentication, googleSingleSignOn, goalFolders, customExporting, privateViews, protectedViews, defaultViews, workload, extraGuests, singleSignOn, contractReview, hipaaCompliance, api, customOnboarding, dedicatedSuccessManager, advancedPermissions};
USAGE_LIMITS = {increasedApiLimit};
PLANS = {FREE, UNLIMITED, BUSINESS, ENTERPRISE};
ADDONS = {};

plans_prices = [0.0,9.0,19.0,0.0];
addons_prices = [];

plans_features = array2d(PLANS, FEATURES, [
    % FREE
    1, 1, 1, 0, 0, 0, 0, 0, 0, 0, 0, 0, 0, 0, 0, 0, 0, 0, 0, 0, 0, 1, 0, 0, 0,
    % UNLIMITED
    1, 1, 1, 1, 1, 1, 1, 1, 1, 1, 0, 0, 0, 0, 0, 0, 0, 0, 0, 0, 0, 1, 0, 0, 0,
    % BUSINESS
    1, 1, 1, 1, 1, 1, 1, 1, 1, 1, 1, 1, 1, 1, 1, 1, 1, 1, 1, 0, 0, 1, 0, 0, 0,
    % ENTERPRISE
    1, 1, 1, 1, 1, 1, 1, 1, 1, 1, 1, 1, 1, 1, 1, 1, 1, 1, 1, 1, 1, 1, 1, 1, 1
]);
plans_usage_limits = array2d(PLANS, USAGE_LIMITS, [
    % FREE
    0,
    % UNLIMITED
    0,
    % BUSINESS
    0,
    % ENTERPRISE
    1
]);

linked_features = array2d(USAGE_LIMITS, FEATURES, [
    % increasedApiLimit
    0,0,0,1,0,0,0,0,0,0,0,0,0,0,0,0,0,0,0,0,0,0,0,0,0
]);

addons_features = array2d(ADDONS, FEATURES, [
]);
addons_usage_limits = array2d(ADDONS, USAGE_LIMITS, [
]);
addons_usage_limits_extensions = array2d(ADDONS, USAGE_LIMITS, [
]);
addons_available_for = array2d(ADDONS, PLANS, [
]);

addons_depends_on = array2d(ADDONS, ADDONS, [
]);